p tw 20 71
1 2
1 11
1 12
1 9
2 12
2 13
2 14
2 18
2 20
2 3
2 5
2 8
2 9
11 14
11 15
11 18
11 19
12 13
13 14
13 16
13 18
14 20
15 17
15 18
15 19
15 20
16 20
17 19
17 20
18 19
3 11
3 12
3 13
3 14
3 5
4 11
4 15
4 20
4 5
4 6
4 9
5 13
5 14
5 15
5 17
5 20
5 8
6 12
6 13
6 14
6 17
6 19
6 20
6 7
6 9
6 10
7 15
7 17
7 18
7 20
8 11
8 12
8 20
9 11
9 12
9 14
9 18
9 10
10 13
10 14
10 16
